36 36
23
3 3   30 4 
3 4   33 28
5 3   0 10
6 3   0 4 
7 3   0 33
8 3   14 7 
9 3   19 33
3 10  33 0 
11 3   22 7 
12 3   7 33
14 3   0 7 
15 3   5 10
16 3   20 10
24 3   6 4 
36 3   0 13
3 4   33 32
11 4   0 0 
22 4   11 0 
5 3   28 33
4 5   0 28
14 5   19 28
15 5   4 28
36 12  0 16
